128868.31,67.68,83.94
137271.31,63.54,78.8
156327.79,55.8,69.19
142458.14,61.23,75.93
139122.51,62.7,77.75
153166.4,56.95,70.62
138704.91,62.89,77.98
132901.5,65.63,81.39
136535.51,63.88,79.22
150525.41,57.95,71.86
133326.02,65.42,81.13
146386.27,59.59,73.89
140697.84,61.99,76.88
131847.04,66.16,82.04
145458.23,59.97,74.36
149904.67,58.19,72.16
140776.86,61.96,76.84
131063.37,66.55,82.53
143336.13,60.85,75.46
140831.34,61.94,76.81
